100
128
39
50
60
11
2
32
22
58
52
49
58
12
48
50
24
7
30
26
1
21
10
41
60
53
33
51
11
25
24
19
16
35
34
38
39
24
11
55
16
29
36
18
2
23
49
2
38
41
31
35
10
10
12
11
26
2
37
13
33
12
48
1
12
2
22
40
24
24
11
31
59
12
27
16
42
15
3
43
2
31
36
14
29
41
7
42
3
17
45
1
48
19
30
31
30
31
56
48
32
48